c nIsolatedPIs 8
c maxPI 56
p cnf 213 472
c gate 57 2 30 0
2 -57 0
30 -57 0
-2 -30 57 0
c gate 58 1 29 0
1 -58 0
29 -58 0
-1 -29 58 0
c gate 59 -57 -58 0
-57 -59 0
-58 -59 0
57 58 59 0
c gate 60 -3 -31 0
-3 -60 0
-31 -60 0
3 31 60 0
c gate 61 -2 -30 0
-2 -61 0
-30 -61 0
2 30 61 0
c gate 62 -60 -61 0
-60 -62 0
-61 -62 0
60 61 62 0
c gate 63 -59 62 0
-59 -63 0
62 -63 0
59 -62 63 0
c gate 64 3 31 0
3 -64 0
31 -64 0
-3 -31 64 0
c gate 65 4 32 0
4 -65 0
32 -65 0
-4 -32 65 0
c gate 66 -64 -65 0
-64 -66 0
-65 -66 0
64 65 66 0
c gate 67 -63 66 0
-63 -67 0
66 -67 0
63 -66 67 0
c gate 68 8 36 0
8 -68 0
36 -68 0
-8 -36 68 0
c gate 69 7 35 0
7 -69 0
35 -69 0
-7 -35 69 0
c gate 70 -68 -69 0
-68 -70 0
-69 -70 0
68 69 70 0
c gate 71 -8 -36 0
-8 -71 0
-36 -71 0
8 36 71 0
c gate 72 -7 -35 0
-7 -72 0
-35 -72 0
7 35 72 0
c gate 73 -71 -72 0
-71 -73 0
-72 -73 0
71 72 73 0
c gate 74 70 73 0
70 -74 0
73 -74 0
-70 -73 74 0
c gate 75 5 33 0
5 -75 0
33 -75 0
-5 -33 75 0
c gate 76 6 34 0
6 -76 0
34 -76 0
-6 -34 76 0
c gate 77 -75 -76 0
-75 -77 0
-76 -77 0
75 76 77 0
c gate 78 -6 -34 0
-6 -78 0
-34 -78 0
6 34 78 0
c gate 79 -5 -33 0
-5 -79 0
-33 -79 0
5 33 79 0
c gate 80 -4 -32 0
-4 -80 0
-32 -80 0
4 32 80 0
c gate 81 -79 -80 0
-79 -81 0
-80 -81 0
79 80 81 0
c gate 82 -78 81 0
-78 -82 0
81 -82 0
78 -81 82 0
c gate 83 77 82 0
77 -83 0
82 -83 0
-77 -82 83 0
c gate 84 74 83 0
74 -84 0
83 -84 0
-74 -83 84 0
c gate 85 -67 84 0
-67 -85 0
84 -85 0
67 -84 85 0
c gate 86 -70 -71 0
-70 -86 0
-71 -86 0
70 71 86 0
c gate 87 -77 -78 0
-77 -87 0
-78 -87 0
77 78 87 0
c gate 88 74 87 0
74 -88 0
87 -88 0
-74 -87 88 0
c gate 89 -86 -88 0
-86 -89 0
-88 -89 0
86 88 89 0
c gate 90 -85 89 0
-85 -90 0
89 -90 0
85 -89 90 0
c gate 91 10 38 0
10 -91 0
38 -91 0
-10 -38 91 0
c gate 92 9 37 0
9 -92 0
37 -92 0
-9 -37 92 0
c gate 93 -91 -92 0
-91 -93 0
-92 -93 0
91 92 93 0
c gate 94 -10 -38 0
-10 -94 0
-38 -94 0
10 38 94 0
c gate 95 -9 -37 0
-9 -95 0
-37 -95 0
9 37 95 0
c gate 96 -94 -95 0
-94 -96 0
-95 -96 0
94 95 96 0
c gate 97 93 96 0
93 -97 0
96 -97 0
-93 -96 97 0
c gate 98 -90 97 0
-90 -98 0
97 -98 0
90 -97 98 0
c gate 99 -93 -94 0
-93 -99 0
-94 -99 0
93 94 99 0
c gate 100 -98 -99 0
-98 -100 0
-99 -100 0
98 99 100 0
c gate 101 12 40 0
12 -101 0
40 -101 0
-12 -40 101 0
c gate 102 11 39 0
11 -102 0
39 -102 0
-11 -39 102 0
c gate 103 -101 -102 0
-101 -103 0
-102 -103 0
101 102 103 0
c gate 104 -12 -40 0
-12 -104 0
-40 -104 0
12 40 104 0
c gate 105 -11 -39 0
-11 -105 0
-39 -105 0
11 39 105 0
c gate 106 -104 -105 0
-104 -106 0
-105 -106 0
104 105 106 0
c gate 107 103 106 0
103 -107 0
106 -107 0
-103 -106 107 0
c gate 108 -100 107 0
-100 -108 0
107 -108 0
100 -107 108 0
c gate 109 -103 -104 0
-103 -109 0
-104 -109 0
103 104 109 0
c gate 110 -108 -109 0
-108 -110 0
-109 -110 0
108 109 110 0
c gate 111 -94 107 0
-94 -111 0
107 -111 0
94 -107 111 0
c gate 112 110 111 0
110 -112 0
111 -112 0
-110 -111 112 0
c gate 113 89 -99 0
89 -113 0
-99 -113 0
-89 99 113 0
c gate 114 108 113 0
108 -114 0
113 -114 0
-108 -113 114 0
c gate 115 -112 -114 0
-112 -115 0
-114 -115 0
112 114 115 0
c gate 116 14 42 0
14 -116 0
42 -116 0
-14 -42 116 0
c gate 117 13 41 0
13 -117 0
41 -117 0
-13 -41 117 0
c gate 118 -116 -117 0
-116 -118 0
-117 -118 0
116 117 118 0
c gate 119 -13 -41 0
-13 -119 0
-41 -119 0
13 41 119 0
c gate 120 -109 -111 0
-109 -120 0
-111 -120 0
109 111 120 0
c gate 121 -119 -120 0
-119 -121 0
-120 -121 0
119 120 121 0
c gate 122 118 -121 0
118 -122 0
-121 -122 0
-118 121 122 0
c gate 123 16 44 0
16 -123 0
44 -123 0
-16 -44 123 0
c gate 124 -16 -44 0
-16 -124 0
-44 -124 0
16 44 124 0
c gate 125 -123 -124 0
-123 -125 0
-124 -125 0
123 124 125 0
c gate 126 15 43 0
15 -126 0
43 -126 0
-15 -43 126 0
c gate 127 -15 -43 0
-15 -127 0
-43 -127 0
15 43 127 0
c gate 128 -126 -127 0
-126 -128 0
-127 -128 0
126 127 128 0
c gate 129 125 128 0
125 -129 0
128 -129 0
-125 -128 129 0
c gate 130 -14 -42 0
-14 -130 0
-42 -130 0
14 42 130 0
c gate 131 129 -130 0
129 -131 0
-130 -131 0
-129 130 131 0
c gate 132 -122 131 0
-122 -132 0
131 -132 0
122 -131 132 0
c gate 133 -117 -130 0
-117 -133 0
-130 -133 0
117 130 133 0
c gate 134 -119 133 0
-119 -134 0
133 -134 0
119 -133 134 0
c gate 135 -110 134 0
-110 -135 0
134 -135 0
110 -134 135 0
c gate 136 -118 -130 0
-118 -136 0
-130 -136 0
118 130 136 0
c gate 137 -135 -136 0
-135 -137 0
-136 -137 0
135 136 137 0
c gate 138 -125 128 0
-125 -138 0
128 -138 0
125 -128 138 0
c gate 139 -137 138 0
-137 -139 0
138 -139 0
137 -138 139 0
c gate 140 -132 -139 0
-132 -140 0
-139 -140 0
132 139 140 0
c gate 141 -127 -137 0
-127 -141 0
-137 -141 0
127 137 141 0
c gate 142 -126 -141 0
-126 -142 0
-141 -142 0
126 141 142 0
c gate 143 -140 142 0
-140 -143 0
142 -143 0
140 -142 143 0
c gate 144 -115 -143 0
-115 -144 0
-143 -144 0
115 143 144 0
c gate 145 -116 129 0
-116 -145 0
129 -145 0
116 -129 145 0
c gate 146 135 145 0
135 -146 0
145 -146 0
-135 -145 146 0
c gate 147 129 136 0
129 -147 0
136 -147 0
-129 -136 147 0
c gate 148 -124 126 0
-124 -148 0
126 -148 0
124 -126 148 0
c gate 149 -123 -148 0
-123 -149 0
-148 -149 0
123 148 149 0
c gate 150 -147 149 0
-147 -150 0
149 -150 0
147 -149 150 0
c gate 151 146 150 0
146 -151 0
150 -151 0
-146 -150 151 0
c gate 152 -144 151 0
-144 -152 0
151 -152 0
144 -151 152 0
c gate 153 -146 150 0
-146 -153 0
150 -153 0
146 -150 153 0
c gate 154 18 46 0
18 -154 0
46 -154 0
-18 -46 154 0
c gate 155 -18 -46 0
-18 -155 0
-46 -155 0
18 46 155 0
c gate 156 17 45 0
17 -156 0
45 -156 0
-17 -45 156 0
c gate 157 -155 156 0
-155 -157 0
156 -157 0
155 -156 157 0
c gate 158 -154 -157 0
-154 -158 0
-157 -158 0
154 157 158 0
c gate 159 19 47 0
19 -159 0
47 -159 0
-19 -47 159 0
c gate 160 20 48 0
20 -160 0
48 -160 0
-20 -48 160 0
c gate 161 -159 -160 0
-159 -161 0
-160 -161 0
159 160 161 0
c gate 162 -20 -48 0
-20 -162 0
-48 -162 0
20 48 162 0
c gate 163 -155 -162 0
-155 -163 0
-162 -163 0
155 162 163 0
c gate 164 -19 -47 0
-19 -164 0
-47 -164 0
19 47 164 0
c gate 165 -17 -45 0
-17 -165 0
-45 -165 0
17 45 165 0
c gate 166 -164 -165 0
-164 -166 0
-165 -166 0
164 165 166 0
c gate 167 163 166 0
163 -167 0
166 -167 0
-163 -166 167 0
c gate 168 161 167 0
161 -168 0
167 -168 0
-161 -167 168 0
c gate 169 158 168 0
158 -169 0
168 -169 0
-158 -168 169 0
c gate 170 -153 169 0
-153 -170 0
169 -170 0
153 -169 170 0
c gate 171 -158 -164 0
-158 -171 0
-164 -171 0
158 164 171 0
c gate 172 161 -171 0
161 -172 0
-171 -172 0
-161 171 172 0
c gate 173 -162 -172 0
-162 -173 0
-172 -173 0
162 172 173 0
c gate 174 -170 -173 0
-170 -174 0
-173 -174 0
170 173 174 0
c gate 175 -23 -51 0
-23 -175 0
-51 -175 0
23 51 175 0
c gate 176 -22 -50 0
-22 -176 0
-50 -176 0
22 50 176 0
c gate 177 -175 -176 0
-175 -177 0
-176 -177 0
175 176 177 0
c gate 178 22 50 0
22 -178 0
50 -178 0
-22 -50 178 0
c gate 179 21 49 0
21 -179 0
49 -179 0
-21 -49 179 0
c gate 180 -178 -179 0
-178 -180 0
-179 -180 0
178 179 180 0
c gate 181 177 -180 0
177 -181 0
-180 -181 0
-177 180 181 0
c gate 182 24 52 0
24 -182 0
52 -182 0
-24 -52 182 0
c gate 183 23 51 0
23 -183 0
51 -183 0
-23 -51 183 0
c gate 184 -182 -183 0
-182 -184 0
-183 -184 0
182 183 184 0
c gate 185 -181 184 0
-181 -185 0
184 -185 0
181 -184 185 0
c gate 186 -24 -52 0
-24 -186 0
-52 -186 0
24 52 186 0
c gate 187 -21 -49 0
-21 -187 0
-49 -187 0
21 49 187 0
c gate 188 -186 -187 0
-186 -188 0
-187 -188 0
186 187 188 0
c gate 189 177 188 0
177 -189 0
188 -189 0
-177 -188 189 0
c gate 190 185 189 0
185 -190 0
189 -190 0
-185 -189 190 0
c gate 191 -174 190 0
-174 -191 0
190 -191 0
174 -190 191 0
c gate 192 -28 -56 0
-28 -192 0
-56 -192 0
28 56 192 0
c gate 193 25 53 0
25 -193 0
53 -193 0
-25 -53 193 0
c gate 194 26 54 0
26 -194 0
54 -194 0
-26 -54 194 0
c gate 195 -193 -194 0
-193 -195 0
-194 -195 0
193 194 195 0
c gate 196 -192 195 0
-192 -196 0
195 -196 0
192 -195 196 0
c gate 197 28 56 0
28 -197 0
56 -197 0
-28 -56 197 0
c gate 198 27 55 0
27 -198 0
55 -198 0
-27 -55 198 0
c gate 199 -197 -198 0
-197 -199 0
-198 -199 0
197 198 199 0
c gate 200 -27 -55 0
-27 -200 0
-55 -200 0
27 55 200 0
c gate 201 -186 -200 0
-186 -201 0
-200 -201 0
186 200 201 0
c gate 202 -25 -53 0
-25 -202 0
-53 -202 0
25 53 202 0
c gate 203 -26 -54 0
-26 -203 0
-54 -203 0
26 54 203 0
c gate 204 -202 -203 0
-202 -204 0
-203 -204 0
202 203 204 0
c gate 205 201 204 0
201 -205 0
204 -205 0
-201 -204 205 0
c gate 206 199 205 0
199 -206 0
205 -206 0
-199 -205 206 0
c gate 207 196 206 0
196 -207 0
206 -207 0
-196 -206 207 0
c gate 208 -185 207 0
-185 -208 0
207 -208 0
185 -207 208 0
c gate 209 -170 -208 0
-170 -209 0
-208 -209 0
170 208 209 0
c gate 210 -191 209 0
-191 -210 0
209 -210 0
191 -209 210 0
c gate 211 144 -151 0
144 -211 0
-151 -211 0
-144 151 211 0
c gate 212 -210 211 0
-210 -212 0
211 -212 0
210 -211 212 0
c gate 213 -152 -212 0
-152 -213 0
-212 -213 0
152 212 213 0
c PO
-213 0
